0 79 32 57 68 99 97 80 90 10 11 49
79 0 96 62 55 11 79 17 28 88 62 32
32 96 0 89 21 33 4 26 75 78 22 45
57 62 89 0 23 57 68 66 32 15 12 69
68 55 21 23 0 33 84 54 95 5 15 10
99 11 33 57 33 0 14 86 29 53 97 75
97 79 4 68 84 14 0 95 74 15 85 56
80 17 26 66 54 86 95 0 34 38 79 27
90 28 75 32 95 29 74 34 0 22 80 43
10 88 78 15 5 53 15 38 22 0 41 20
11 62 22 12 15 97 85 79 80 41 0 55
49 32 45 69 10 75 56 27 43 20 55 0